StudentsNr = 10;
InstructorsNr = 95;
DaysNr = 1;
SlotsPerDay = 20;
AvailabilitySlotsLenght = 5;
RoomNr = 1;
ProgrammNr = 2;
DegreeNr = 2;
RolesNr = 2;
CoursesNr = 10;
InstructorsProgramm = [{2}, {2}, {1, 2}, {2}, {1}, {1}, {1, 2}, {1}, {2}, {1}, {1}, {1}, {1}, {1}, {1}, {1, 2}, {1, 2}, {1}, {1}, {1}, {1, 2}, {2}, {1, 2}, {1}, {1, 2}, {1}, {2}, {2}, {1}, {1, 2}, {1}, {2}, {1}, {1}, {2}, {2}, {2}, {2}, {2}, {1, 2}, {1}, {2}, {2}, {1, 2}, {1}, {1, 2}, {2}, {1}, {2}, {1}, {1, 2}, {1}, {1}, {1}, {2}, {1, 2}, {1, 2}, {1, 2}, {1, 2}, {2}, {2}, {1}, {1, 2}, {1}, {2}, {1, 2}, {1}, {2}, {2}, {1, 2}, {2}, {2}, {2}, {2}, {2}, {1}, {1}, {2}, {1}, {1}, {2}, {1}, {1}, {1}, {2}, {2}, {2}, {2}, {2}, {1}, {1, 2}, {1}, {1, 2}, {2}, {1}];
InstructorRolesPerProgramm = [|{3, 6, 7, 11, 19, 21, 23, 31, 34, 40, 44, 46, 48, 50, 52, 54, 58, 63, 64, 67, 70, 79, 80, 91, 92, 95}, {11, 14, 17, 18, 19, 24, 26, 29, 30, 33, 34, 44, 52, 54, 63, 70, 82, 83, 84, 92}|{3, 4, 7, 21, 22, 23, 27, 28, 32, 39, 40, 42, 43, 44, 46, 49, 58, 63, 65, 69, 70, 72, 81, 85, 86, 91}, {1, 17, 27, 28, 30, 35, 38, 39, 43, 44, 47, 49, 60, 61, 63, 65, 70, 71, 72, 73, 85, 86, 88, 94}|];
InstructorsAvailability = [|1, 1, 0, 1, |0, 1, 1, 1, |1, 1, 1, 1, |1, 1, 1, 1, |1, 0, 0, 0, |0, 1, 0, 0, |1, 1, 1, 1, |1, 0, 0, 0, |0, 1, 1, 1, |1, 1, 1, 0, |1, 1, 1, 1, |0, 1, 1, 0, |0, 1, 0, 0, |1, 1, 1, 1, |0, 0, 0, 1, |0, 0, 1, 1, |0, 0, 1, 1, |1, 1, 1, 1, |1, 1, 1, 1, |0, 1, 1, 0, |1, 1, 0, 1, |1, 1, 1, 0, |0, 1, 1, 1, |1, 1, 1, 1, |0, 1, 1, 1, |0, 1, 1, 1, |1, 1, 0, 1, |1, 1, 1, 1, |1, 1, 1, 1, |0, 0, 1, 1, |0, 0, 1, 1, |0, 1, 1, 1, |0, 0, 1, 1, |0, 0, 0, 0, |0, 1, 1, 1, |1, 0, 0, 1, |0, 0, 0, 0, |0, 0, 1, 1, |0, 0, 1, 1, |0, 0, 1, 1, |1, 1, 0, 1, |1, 1, 1, 1, |1, 1, 1, 0, |0, 0, 1, 1, |1, 1, 1, 1, |0, 1, 1, 1, |0, 1, 1, 1, |1, 1, 1, 1, |0, 1, 0, 0, |1, 1, 1, 0, |0, 0, 0, 0, |1, 1, 1, 1, |1, 1, 1, 1, |1, 1, 1, 1, |1, 1, 1, 1, |0, 0, 1, 1, |1, 1, 1, 0, |1, 0, 0, 1, |1, 1, 1, 1, |0, 0, 0, 1, |1, 1, 1, 1, |1, 0, 0, 0, |0, 1, 1, 1, |0, 1, 1, 1, |1, 1, 1, 1, |0, 1, 1, 1, |0, 0, 1, 1, |0, 1, 0, 1, |1, 1, 1, 1, |1, 1, 0, 1, |0, 0, 0, 1, |0, 1, 0, 1, |1, 1, 1, 1, |0, 0, 1, 1, |0, 1, 1, 0, |1, 0, 0, 0, |0, 0, 1, 1, |1, 1, 1, 0, |1, 1, 1, 0, |0, 0, 0, 1, |0, 1, 1, 1, |1, 1, 1, 1, |1, 1, 1, 1, |0, 0, 0, 1, |1, 1, 1, 1, |1, 1, 1, 1, |1, 1, 1, 1, |1, 1, 1, 1, |0, 1, 1, 1, |0, 1, 1, 1, |0, 1, 1, 1, |0, 0, 1, 1, |1, 1, 1, 1, |0, 0, 1, 1, |0, 0, 0, 1|];
StudentsProgramm = [2, 1, 1, 1, 2, 2, 1, 1, 1, 2];
StudentsDegree = [2, 1, 1, 2, 1, 1, 2, 1, 2, 1];
StudentsSupervisorId = [60, 63, 13, 15, 1, 22, 50, 95, 30, 21];
StudentsCourseIds = [{}, {2, 3}, {2, 4}, {}, {3, 10}, {4, 7}, {}, {7, 10}, {}, {5, 10}];
StudentsAvailability = [|1, 1, 1, 1, |1, 1, 1, 1, |1, 1, 1, 1, |0, 0, 1, 1, |0, 0, 0, 0, |0, 0, 0, 1, |1, 1, 1, 1, |1, 1, 1, 1, |0, 1, 1, 0, |0, 1, 1, 1|];
TheoryticalMinCard = [0, 0, 1, 1, 0, 0, 0, 0, 0, 0];
CoursesInstructorIds = [{67, 80, 87}, {1, 2, 3, 4, 6, 9, 10, 11, 12, 14, 16, 17, 18, 20, 21, 22, 24, 25, 26, 27, 29, 30, 31, 34, 36, 37, 39, 40, 43, 44, 45, 46, 47, 49, 51, 53, 56, 57, 58, 60, 61, 62, 63, 65, 67, 68, 69, 70, 72, 75, 77, 79, 80, 81, 82, 83, 84, 85, 86, 89, 90, 91, 92, 95}, {1, 3, 10, 14, 15, 16, 19, 20, 23, 24, 25, 27, 31, 35, 43, 44, 45, 47, 50, 56, 57, 58, 65, 74, 78, 83, 85, 92, 93, 95}, {4, 5, 8, 10, 12, 18, 19, 23, 24, 27, 28, 31, 33, 36, 37, 38, 39, 41, 42, 45, 48, 50, 51, 52, 54, 57, 60, 62, 63, 64, 66, 67, 68, 69, 70, 73, 74, 75, 77, 79, 80, 83, 87, 89, 91, 94}, {4, 15, 53, 58, 75, 84, 88}, {16, 18, 27, 42, 54, 63, 65, 82, 88, 92, 95}, {1, 2, 3, 6, 9, 11, 13, 15, 18, 19, 20, 22, 24, 26, 27, 28, 29, 31, 32, 36, 38, 39, 41, 42, 44, 48, 49, 51, 52, 53, 54, 55, 56, 57, 64, 66, 67, 69, 71, 74, 75, 76, 80, 82, 83, 84, 85, 86, 88, 89, 90, 91, 93, 94, 95}, {8, 11, 13, 15, 18, 19, 29, 33, 35, 42, 43, 45, 47, 48, 50, 51, 52, 53, 61, 68, 70, 75, 83, 86, 94}, {1, 4, 6, 7, 8, 9, 10, 11, 12, 13, 14, 17, 18, 25, 28, 29, 30, 31, 33, 34, 36, 37, 38, 39, 41, 42, 45, 46, 47, 51, 52, 53, 54, 55, 57, 58, 59, 60, 61, 63, 64, 65, 67, 70, 72, 73, 74, 76, 77, 80, 81, 82, 84, 85, 88, 89, 90, 91, 92}, {10, 13, 15, 17, 18, 22, 28, 29, 39, 53, 56, 62, 70, 79, 84, 91, 92}];
RolesDemands = [25, 17];
RolesContinuity = [];
ExamLen = [1, 1, 1, 1, 1, 1, 1, 1, 1, 1];
LunchTsMinLen = 0;
LunchStarts = [9..11];
SupervisorAvailable = 5;
OptimalLunchLenght = [3, 1];
OptimalStartTs = [0, 0];
OptimalFinishTs = [2, 20];
MinimizeRooms = 200;
RolesSoftContinuity = [|1, 2|2, 4|];
SameDegreeInRoom = 0;
Mergeability = 2;
